###############################################
# LAMMPS script for a DNA and proteins
###############################################

###
# Box and units  (use LJ units and periodic boundaries)
###

units lj                 # use lennard-jones (i.e. dimensionless) units
atom_style angle         # atoms with bonds and angles

boundary p p p           # all boundaries are periodic

###
# Pair interactions require lists of neighbours to be calculated
###
neighbor 1.9 bin
neigh_modify every 1 delay 1 check yes 


### 
# READ "start" data file 
###
read_data initial_configuration.txt 


### 
# Reset timestep 
###
reset_timestep 0 

###
# Define groups 
###
group all type 1 2
group dna type 1
group prot type 2

###
# Dump configurations
###
dump dum1 all custom 1000 dump.DNA+proteins id type xs ys zs ix iy iz
# every 1000 time steps, each atom's id, type, x,y,z coords and x,y,z image flages are output.
# image flags count how many times each atom has moved through a periodic boundary

###
# Set up interactions - start with 'soft' potentials
###

## angles
angle_style  cosine
angle_coeff   1  20.0
# this choice gives a polymer with the same persistence length as DNA

## Between bonded atoms
bond_style   harmonic 
# For style harmonic, specify:
#   * bond type
#   * K (energy/distance^2) 
#   * R0 (distance)
bond_coeff   1   90.0   1.1 


## Between non-bonded atoms
pair_style     soft 1.12246152962189
#  pair_coeff for soft, specify 3:
#    * atom type interacting with
#    * atom type 
#    * energy
#    * cutoff
pair_coeff 1 1  100.0 1.12246152962189 
pair_coeff 1 2  100.0 1.6836922944328352 # lets make the proteins diameter 2
pair_coeff 2 2  100.0 2.2449230592437801

###
# Set up fixes
###
variable seed equal 54654651     # a seed for the thermostat

fix 1 all nve                             # NVE integrator
fix 2 all langevin   1.0 1.0 1.0 ${seed}  # langevin thermostat

##### Output thermodynamic info  (temperature, energy, pressure, etc.) #####
thermo 1000
thermo_style   custom   step  temp  epair  emol  press  vol
############################################################################


##### Output thermodynamic info to file  ###################################
variable t equal step
variable mytemp equal temp
variable myepair equal epair
fix mythermofile all print 1000 "$t ${mytemp} ${myepair}" file thermo_output.dat screen no
############################################################################

############################################################################
#### Set up a compute for R_g
compute myRG2compute all gyration
#### and write it to a file
variable RG2 equal c_myRG2compute
fix myRG2file all print 1000 "$t ${RG2}" file radius_of_gyration_squared.dat screen no
############################################################################



###
# set timestep of integrator
###
timestep 0.01 

###
# run integration for a number of steps to equilibrate with soft potnentials
###
 
run 5000

write_restart DNA_prot.equlilb.restart


###
# Now switch to LJ potential and FENE bonds

## Between bonded atoms
bond_style   fene
special_bonds fene #<=== I M P O R T A N T prevents LJ from being counted twice
# For style FENE, specify:
#   * bond type
#   * K (energy/distance^2) 
#   * R0 (distance)
#   * epsilon
#   * sigma
bond_coeff   1    30.0   1.6   1.0   1.0

## Between non-bonded atoms
pair_style      lj/cut 1.12246152962189
pair_modify shift yes        # option to ensure energy is calculated corectly
#  pair_coeff for LJ, specify 4:
#    * atom type interacting with
#    * atom type
#    * energy
#    * mean diameter of the two atom types
#    * cutoff
pair_coeff      1 1 1.0 1.0 1.12246152962189
pair_coeff      1 2 1.0 1.5 1.6836922944328352
pair_coeff      2 2 1.0 2.0 2.2449230592437801
# here we have set the diameter of the proteins to 2
# the interaction diameter between DNA and proteins is the mean of their diameters
# we have chosen the cut off at the minimum of the potential -- there is no attractive part


###
# now do a longer run with no attractive interactions
###

run 100000

###
# switch on attraction between proteins and DNA
###
pair_coeff      1 2 5.0 1.5 2.5
# we have increased the cut off, and chosen an interaction energy of 5k_BT

## do another run
run 200000


#### write a final restart file
write_restart final.restart